<number of tasks>
20

<cycle time>
1000

<order strength>
0,195


<task times>
1 362
2 514
3 623
4 399
5 576
6 476
7 662
8 408
9 437
10 529
11 433
12 402
13 458
14 577
15 250
16 482
17 298
18 549
19 266
20 447

<precedence relations>
1,8
2,5
3,6
3,7
3,9
5,10
5,11
5,13
7,12
11,16
12,15
13,14
13,17
14,20
15,19
17,18

<end>
